% demand
num_movements = 31;
loading_factor = [1300, 1050, 1750, 1250, 1200, 1700, 1900, 850, 2000, 1200, 1450, 1200, 1400, 1150, 1500, 1600, 1950, 1650, 1300, 1000, 1300, 900, 1900, 1550, 1700, 950, 900, 1050, 1200, 850, 950];
pickup_time = [0, 0, 0, 0, 0, 0, 0, 0, 1, 1, 1, 1, 1, 1, 2, 2, 2, 2, 2, 2, 2, 3, 3, 3, 3, 5, 5, 5, 5, 5, 6];
delivery_time = [1, 1, 1, 1, 1, 1, 1, 1, 2, 2, 2, 2, 2, 2, 5, 3, 5, 3, 3, 5, 3, 5, 5, 5, 5, 7, 6, 7, 8, 6, 7];

% transporter definition
total_capacity = 11000;
num_decks = 4;
capacity = [3000, 3000, 1000, 4000];

% ways out of decks
num_ways_out = 2;
paths_out = array3d(decks, ways_out, decks, [
% ways out of deck d1
2, 4, 0, 0, 3, 4, 0, 0, 

% ways out of deck d2
4, 0, 0, 0, 0, 0, 0, 0,	

% ways out of deck d3
4, 0, 0, 0, 0, 0, 0, 0,	

% ways out of deck d4
0, 0, 0, 0,	0, 0, 0, 0,	

]);

